p cnf 7230 16
3116 3117 0
2440 -3117 0
-2440 -3116 0
3114 3115 0
2438 -3115 0
-2438 -3114 0
3112 3113 0
2436 -3113 0
-2436 -3112 0
3110 3111 0
2434 -3111 0
-2434 -3110 0
3108 3109 0
-3108 -3109 0
2444 -3119 0
1796 -3119 0
